FILENAME:   /home/mcs001/s132664/testsets/IP/miplib2017/neos-950242.mps.gz
SETTINGS:   settings_final_nopeek_norelabel_extend_norestarts
TIMELIMIT:  7200
OUTPUTNAME: final_miplib_symretope_if_extended_generating_set_cpx_v802__settings_final_nopeek_norelabel_extend_norestarts__3__
BINNAME:    bin/sbcs.linux.x86_64.gnu.opt.cpx
BASENAME:   neos-950242.mps.gz
SEED:       3
@01 /home/mcs001/s132664/testsets/IP/miplib2017/neos-950242.mps.gz ===========
@02 neos-950242.mps.gz
@03 1686663729
SCIP version 8.0.2 [precision: 8 byte] [memory: block] [mode: optimized] [LP solver: CPLEX 20.1.0.0] [GitHash: 5f0473c]
Copyright (C) 2002-2022 Konrad-Zuse-Zentrum fuer Informationstechnik Berlin (ZIB)

Symretope propagation methods - (c) Jasper van Doornmalen, Christopher Hojny.
[GitHash: 2fd0484]

reading parameter file <../settings/settings_final_nopeek_norelabel_extend_norestarts.set> ...

Changed settings:
limits/time = 7200
limits/restarts = 0
misc/usesymmetry = 1
randomization/randomseedshift = 3
constraints/orbisack/sepafreq = -1
constraints/symresack/sepafreq = -1
propagating/symmetry/addsymresacks = TRUE
propagating/symmetry/detectsubgroups = FALSE
propagating/symmetry/relabelsymretopes = 0
propagating/symmetry/extendgenerators = TRUE
propagating/symmetry/ofsymcomptiming = 0
constraints/symretope/sepafreq = -1
constraints/symretope/peek = FALSE


solving problem ...

original problem has 5760 variables (5520 bin, 240 int, 0 impl, 0 cont) and 34224 constraints
presolving:
(round 1, fast)       1488 del vars, 1488 del conss, 0 add conss, 0 chg bounds, 0 chg sides, 0 chg coeffs, 0 upgd conss, 0 impls, 2520 clqs
(round 2, exhaustive) 1488 del vars, 1488 del conss, 0 add conss, 0 chg bounds, 0 chg sides, 0 chg coeffs, 32736 upgd conss, 0 impls, 2520 clqs
(round 3, exhaustive) 1488 del vars, 4032 del conss, 240 add conss, 0 chg bounds, 0 chg sides, 0 chg coeffs, 32736 upgd conss, 0 impls, 2520 clqs
   (0.5s) probing: 195/4272 (4.6%) - 0 fixings, 0 aggregations, 960 implications, 0 bound changes
   (0.5s) probing aborted: 50/50 successive totally useless probings
   (0.5s) symmetry computation started: requiring (bin +, int +, cont +), (fixed: bin -, int -, cont -)
   (1.0s) symmetry computation finished: 23 generators found (max: 1500, log10 of symmetry group size: 23.8)
(round 4, exhaustive) 1488 del vars, 4032 del conss, 516 add conss, 0 chg bounds, 0 chg sides, 0 chg coeffs, 32736 upgd conss, 0 impls, 3696 clqs
presolving (5 rounds: 5 fast, 4 medium, 4 exhaustive):
 1488 deleted vars, 4032 deleted constraints, 516 added constraints, 0 tightened bounds, 0 added holes, 0 changed sides, 0 changed coefficients
 0 implications, 3696 cliques
presolved problem has 4272 variables (4272 bin, 0 int, 0 impl, 0 cont) and 30708 constraints
    216 constraints of type <setppc>
    240 constraints of type <and>
    254 constraints of type <orbisack>
     22 constraints of type <symretope>
  29976 constraints of type <logicor>
transformed objective value is always integral (scale: 1)
Presolving Time: 1.09

 time | node  | left  |LP iter|LP it/n|mem/heur|mdpt |vars |cons |rows |cuts |sepa|confs|strbr|  dualbound   | primalbound  |  gap   | compl. 
  1.8s|     1 |     0 |   785 |     - |   168M |   0 |4272 |  30k|  30k|   0 |  0 | 126 |   0 | 1.000000e+00 |      --      |    Inf | unknown
 39.2s|     1 |     0 | 22536 |     - |   175M |   0 |4272 |  30k|  31k|  66 |  1 | 129 |   0 | 1.000000e+00 |      --      |    Inf | unknown
 40.3s|     1 |     0 | 23487 |     - |   182M |   0 |4272 |  30k|  31k| 131 |  2 | 131 |   0 | 1.000000e+00 |      --      |    Inf | unknown
 42.8s|     1 |     0 | 25068 |     - |   190M |   0 |4272 |  30k|  31k| 206 |  3 | 134 |   0 | 1.000000e+00 |      --      |    Inf | unknown
 46.1s|     1 |     0 | 27049 |     - |   197M |   0 |4272 |  30k|  31k| 302 |  4 | 137 |   0 | 1.000000e+00 |      --      |    Inf | unknown
 49.7s|     1 |     0 | 29095 |     - |   204M |   0 |4272 |  30k|  31k| 422 |  5 | 139 |   0 | 1.000000e+00 |      --      |    Inf | unknown
 53.9s|     1 |     0 | 31656 |     - |   210M |   0 |4272 |  30k|  31k| 506 |  6 | 141 |   0 | 1.000000e+00 |      --      |    Inf | unknown
 58.0s|     1 |     0 | 34092 |     - |   216M |   0 |4272 |  30k|  31k| 563 |  7 | 143 |   0 | 1.000000e+00 |      --      |    Inf | unknown
 62.7s|     1 |     0 | 36991 |     - |   221M |   0 |4272 |  30k|  31k| 617 |  8 | 146 |   0 | 1.000000e+00 |      --      |    Inf | unknown
 75.9s|     1 |     0 | 45228 |     - |   228M |   0 |4272 |  30k|  31k| 719 |  9 | 148 |   0 | 1.000000e+00 |      --      |    Inf | unknown
  103s|     1 |     0 | 60961 |     - |   234M |   0 |4272 |  30k|  31k| 777 | 10 | 150 |   0 | 1.000000e+00 |      --      |    Inf | unknown
  122s|     1 |     0 | 77438 |     - |   238M |   0 |4272 |  30k|  31k| 808 | 11 | 151 |   0 | 1.000000e+00 |      --      |    Inf | unknown
  151s|     1 |     2 | 87549 |     - |   239M |   0 |4272 |  30k|  31k| 808 | 11 | 157 |  22 | 1.000000e+00 |      --      |    Inf | unknown
* 400s|    79 |    37 |285511 |2667.6 |    LP  |  17 |4272 |  30k|  31k|2064 |  2 | 293 |  22 | 1.045139e+00 | 4.000000e+00 | 282.72%|  11.99%
  421s|   100 |    42 |300049 |2248.6 |   333M |  17 |4272 |  30k|  31k|2191 |  1 | 340 |  22 | 1.045139e+00 | 4.000000e+00 | 282.72%|  16.01%
 time | node  | left  |LP iter|LP it/n|mem/heur|mdpt |vars |cons |rows |cuts |sepa|confs|strbr|  dualbound   | primalbound  |  gap   | compl. 
  518s|   200 |    80 |373616 |1488.3 |   370M |  18 |4272 |  31k|  31k|3022 |  1 | 613 |  22 | 1.333333e+00 | 4.000000e+00 | 200.00%|  24.59%
  597s|   300 |    90 |446286 |1233.6 |   372M |  22 |4272 |  31k|   0 |3452 |  0 | 809 |  22 | 1.500000e+00 | 4.000000e+00 | 166.67%|  46.05%
  630s|   400 |    88 |473042 | 991.5 |   388M |  22 |4272 |  31k|  31k|3827 |  1 | 974 |  22 | 2.000000e+00 | 4.000000e+00 | 100.00%|  47.26%
  644s|   500 |    97 |490881 | 828.5 |   375M |  23 |4272 |  31k|  32k|4146 |  2 |1173 |  22 | 2.000000e+00 | 4.000000e+00 | 100.00%|  47.40%
  683s|   600 |    89 |523850 | 745.3 |   404M |  23 |4272 |  31k|  31k|4545 |  1 |1359 |  22 | 2.000000e+00 | 4.000000e+00 | 100.00%|  50.51%
  747s|   700 |    83 |577106 | 714.8 |   422M |  23 |4272 |  31k|  31k|4830 |  1 |1465 |  22 | 2.006849e+00 | 4.000000e+00 |  99.32%|  52.15%
  805s|   800 |    77 |627053 | 687.9 |   427M |  24 |4272 |  31k|   0 |5050 |  0 |1604 |  22 | 2.166667e+00 | 4.000000e+00 |  84.62%|  63.97%
  828s|   900 |    46 |647947 | 634.6 |   430M |  26 |4272 |  31k|  32k|5203 |  0 |1747 |  22 | 2.333333e+00 | 4.000000e+00 |  71.43%|  77.22%
  859s|  1000 |    19 |677574 | 600.7 |   446M |  26 |4272 |  31k|  31k|5479 |  4 |1861 |  22 | 2.500000e+00 | 4.000000e+00 |  60.00%|  86.20%

SCIP Status        : problem is solved [optimal solution found]
Solving Time (sec) : 875.66
Solving Nodes      : 1068
Primal Bound       : +4.00000000000000e+00 (1 solutions)
Dual Bound         : +4.00000000000000e+00
Gap                : 0.00 %
SCIP Status        : problem is solved [optimal solution found]
Total Time         :     875.81
  solving          :     875.66
  presolving       :       1.09 (included in solving)
  reading          :       0.15
  copying          :       0.37 (7 #copies) (minimal 0.05, maximal 0.05, average 0.05)
Original Problem   :
  Problem name     : neos-950242
  Variables        : 5760 (5520 binary, 240 integer, 0 implicit integer, 0 continuous)
  Constraints      : 34224 initial, 34224 maximal
  Objective        : minimize, 24 non-zeros (abs.min = 1, abs.max = 1)
Presolved Problem  :
  Problem name     : t_neos-950242
  Variables        : 4272 (4272 binary, 0 integer, 0 implicit integer, 0 continuous)
  Constraints      : 30708 initial, 31462 maximal
  Objective        : minimize, 24 non-zeros (abs.min = 1, abs.max = 1)
  Nonzeros         : 406252 constraint, 10588 clique table
Presolvers         :   ExecTime  SetupTime  Calls  FixedVars   AggrVars   ChgTypes  ChgBounds   AddHoles    DelCons    AddCons   ChgSides   ChgCoefs
  boundshift       :       0.00       0.00      0          0          0          0          0          0          0          0          0          0
  convertinttobin  :       0.00       0.00      0          0          0          0          0          0          0          0          0          0
  domcol           :       0.00       0.00      2          0          0          0          0          0          0          0          0          0
  dualagg          :       0.00       0.00      0          0          0          0          0          0          0          0          0          0
  dualcomp         :       0.00       0.00      0          0          0          0          0          0          0          0          0          0
  dualinfer        :       0.00       0.00      0          0          0          0          0          0          0          0          0          0
  dualsparsify     :       0.00       0.00      2          0          0          0          0          0          0          0          0          0
  gateextraction   :       0.05       0.00      3          0          0          0          0          0       2544        240          0          0
  implics          :       0.00       0.00      4          0          0          0          0          0          0          0          0          0
  inttobinary      :       0.00       0.00      1          0          0          0          0          0          0          0          0          0
  qpkktref         :       0.00       0.00      0          0          0          0          0          0          0          0          0          0
  redvub           :       0.00       0.00      0          0          0          0          0          0          0          0          0          0
  sparsify         :       0.00       0.00      1          0          0          0          0          0          0          0          0          0
  stuffing         :       0.00       0.00      0          0          0          0          0          0          0          0          0          0
  trivial          :       0.00       0.00      5          0          0          0          0          0          0          0          0          0
  tworowbnd        :       0.00       0.00      0          0          0          0          0          0          0          0          0          0
  dualfix          :       0.00       0.00      5          0          0          0          0          0          0          0          0          0
  genvbounds       :       0.00       0.00      0          0          0          0          0          0          0          0          0          0
  probing          :       0.11       0.00      1          0          0          0          0          0          0          0          0          0
  pseudoobj        :       0.00       0.00      0          0          0          0          0          0          0          0          0          0
  symmetry         :       0.53       0.00      1          0          0          0          0          0          0        276          0          0
  vbounds          :       0.00       0.00      2          0          0          0          0          0          0          0          0          0
  knapsack         :       0.00       0.00      0          0          0          0          0          0          0          0          0          0
  setppc           :       0.01       0.00      8          0          0          0          0          0          0          0          0          0
  and              :       0.00       0.00      4          0          0          0          0          0          0          0          0          0
  linear           :       0.17       0.01      3          0       1488          0          0          0       1488          0          0          0
  orbisack         :       0.00       0.00      1          0          0          0          0          0          0          0          0          0
  symretope        :       0.00       0.00      1          0          0          0          0          0          0          0          0          0
  logicor          :       0.10       0.01      8          0          0          0          0          0          0          0          0          0
  benders          :       0.00       0.00      0          0          0          0          0          0          0          0          0          0
  components       :       0.07       0.00      1          0          0          0          0          0          0          0          0          0
  root node        :          -          -      -         27          -          -         27          -          -          -          -          -
Constraints        :     Number  MaxNumber  #Separate #Propagate    #EnfoLP    #EnfoRelax  #EnfoPS    #Check   #ResProp    Cutoffs    DomReds       Cuts    Applied      Conss   Children
  benderslp        :          0          0          0          0        585          0          0         88          0          0          0          0          0          0          0
  integral         :          0          0          0          0        585          0          0         88          0          0          0          0          0          0       1168
  knapsack         :          0+         7          0       6190          0          0          0          0          7          4         45          0          0          0          0
  setppc           :        216+       281         11      13518          1          0          0         82       3435        197       5298         22          3          0          0
  and              :        240        240       1193      13321          1          0          0          0      32519        112     136385      10459       4708          0          0
  linear           :          0+        24          0       6338          0          0          0          0         18         10        131          0          0          0          0
  orbisack         :        254        254          0        737          0          0          0          0       5007         24       2877          0          0          0          0
  symretope        :         22         22          0       1621          0          0          0          0       1661          5       1237          0          0          0          0
  logicor          :      29976+     30646         11       7886          1          0          0          0       2655        172      35521        135          3          0          0
  benders          :          0          0          0          0          1          0          0          1          0          0          0          0          0          0          0
  countsols        :          0          0          0          0          1          0          0          1          0          0          0          0          0          0          0
  components       :          0          0          0          0          0          0          0          0          0          0          0          0          0          0          0
Constraint Timings :  TotalTime  SetupTime   Separate  Propagate     EnfoLP     EnfoPS     EnfoRelax   Check    ResProp    SB-Prop
  benderslp        :       0.00       0.00       0.00       0.00       0.00       0.00       0.00       0.00       0.00       0.00
  integral         :      17.88       0.00       0.00       0.00      17.88       0.00       0.00       0.00       0.00       0.00
  knapsack         :       0.01       0.00       0.00       0.01       0.00       0.00       0.00       0.00       0.00       0.00
  setppc           :       0.07       0.00       0.00       0.06       0.00       0.00       0.00       0.00       0.00       0.00
  and              :       0.76       0.00       0.18       0.56       0.00       0.00       0.00       0.00       0.01       0.00
  linear           :       0.03       0.01       0.00       0.02       0.00       0.00       0.00       0.00       0.00       0.00
  orbisack         :       0.08       0.00       0.00       0.07       0.00       0.00       0.00       0.00       0.00       0.00
  symretope        :       0.05       0.00       0.00       0.04       0.00       0.00       0.00       0.00       0.01       0.00
  logicor          :       1.45       0.01       0.08       1.35       0.00       0.00       0.00       0.00       0.01       0.00
  benders          :       0.00       0.00       0.00       0.00       0.00       0.00       0.00       0.00       0.00       0.00
  countsols        :       0.00       0.00       0.00       0.00       0.00       0.00       0.00       0.00       0.00       0.00
  components       :       0.00       0.00       0.00       0.00       0.00       0.00       0.00       0.00       0.00       0.00
Propagators        : #Propagate   #ResProp    Cutoffs    DomReds
  dualfix          :          1          0          0          0
  genvbounds       :          0          0          0          0
  nlobbt           :          0          0          0          0
  obbt             :          0          0          0          0
  probing          :          0          0          0          0
  pseudoobj        :       5197       3045          8       4573
  redcost          :       1992          0          0       1353
  rootredcost      :          2          0          0          0
  symmetry         :          0          0          0          0
  vbounds          :       7692          0          0          0
Propagator Timings :  TotalTime  SetupTime   Presolve  Propagate    ResProp    SB-Prop
  dualfix          :       0.00       0.00       0.00       0.00       0.00       0.00
  genvbounds       :       0.00       0.00       0.00       0.00       0.00       0.00
  nlobbt           :       0.00       0.00       0.00       0.00       0.00       0.00
  obbt             :       0.00       0.00       0.00       0.00       0.00       0.00
  probing          :       0.11       0.00       0.11       0.00       0.00       0.00
  pseudoobj        :       0.04       0.00       0.00       0.03       0.01       0.00
  redcost          :       0.39       0.00       0.00       0.39       0.00       0.00
  rootredcost      :       0.00       0.00       0.00       0.00       0.00       0.00
  symmetry         :       0.53       0.00       0.53       0.00       0.00       0.00
  vbounds          :       0.16       0.00       0.00       0.15       0.00       0.00
Orbital fixing     :
  vars fixed to 0  :          0
  vars fixed to 1  :          0
Conflict Analysis  :       Time      Calls    Success    DomReds  Conflicts   Literals    Reconvs ReconvLits   Dualrays   Nonzeros   LP Iters   (pool size: [10000,10000])
  propagation      :       0.06        522        507          -       3026       29.5         25       14.2          -          -          -
  infeasible LP    :       0.00          3          3          -         12       25.8          1        2.0          3        2.0          0
  bound exceed. LP :       0.18         31         31          -        238       32.7          6       20.7         31       58.7        110
  strong branching :       0.00          0          0          -          0        0.0          0        0.0          -          -          0
  pseudo solution  :       0.00          0          0          -          0        0.0          0        0.0          -          -          -
  applied globally :       0.02          -          -          0       1887       24.5          -          -         34          -          -
  applied locally  :          -          -          -          0          0        0.0          -          -          0          -          -
Separators         :   ExecTime  SetupTime      Calls  RootCalls    Cutoffs    DomReds  FoundCuts ViaPoolAdd  DirectAdd    Applied ViaPoolApp  DirectApp      Conss
  cut pool         :       0.61          -        256         21          -          -       9055       2248          -          -          -          -          -    (maximal pool size:       6688)
  aggregation      :       0.35       0.00         92         11          0          0        196         91          0         17         17          0          0
  > cmir           :          -          -          -          -          -          -          -         91          0         17         17          0          -
  > flowcover      :          -          -          -          -          -          -          -          0          0          0          0          0          -
  > knapsackcover  :          -          -          -          -          -          -          -          0          0          0          0          0          -
  cgmip            :       0.00       0.00          0          0          0          0          0          0          0          0          0          0          0
  clique           :       0.05       0.00         11         11          0          0         62        186          0         45         45          0          0
  closecuts        :       0.00       0.00          0          0          0          0          0          0          0          0          0          0          0
  convexproj       :       0.00       0.00          0          0          0          0          0          0          0          0          0          0          0
  disjunctive      :       0.00       0.00          0          0          0          0          0          0          0          0          0          0          0
  eccuts           :       0.00       0.00          0          0          0          0          0          0          0          0          0          0          0
  gauge            :       0.00       0.00          0          0          0          0          0          0          0          0          0          0          0
  gomory           :       5.91       0.00         89         10          0          0       5985        349         14         27         26          1          0
  > gomorymi       :          -          -          -          -          -          -          -        144          7          3          3          0          -
  > strongcg       :          -          -          -          -          -          -          -        205          7         24         23          1          -
  impliedbounds    :       0.03       0.00         92         11          0          0       2434       1188          0        488        488          0          0
  interminor       :       0.00       0.00          0          0          0          0          0          0          0          0          0          0          0
  intobj           :       0.00       0.00          0          0          0          0          0          0          0          0          0          0          0
  mcf              :       0.02       0.00          1          1          0          0          0          0          0          0          0          0          0
  minor            :       0.00       0.00          0          0          0          0          0          0          0          0          0          0          0
  mixing           :       0.00       0.00          0          0          0          0          0          0          0          0          0          0          0
  oddcycle         :       0.00       0.00          0          0          0          0          0          0          0          0          0          0          0
  rapidlearning    :       0.08       0.00          0          0          0          0          0          0          0          0          0          0          0
  rlt              :       0.00       0.00         10         10          0          0          0          0          0          0          0          0          0
  zerohalf         :       0.66       0.00         90         11          0          0        400        434          8        298        291          7          0
Cutselectors       :   ExecTime  SetupTime      Calls  RootCalls   Selected     Forced   Filtered  RootSelec   RootForc   RootFilt 
  hybrid           :       0.01       0.00        768         11       5591          0       7295        808          0       2792
Pricers            :   ExecTime  SetupTime      Calls       Vars
  problem variables:       0.00          -          0          0
Branching Rules    :   ExecTime  SetupTime   BranchLP  BranchExt   BranchPS    Cutoffs    DomReds       Cuts      Conss   Children
  allfullstrong    :       0.00       0.00          0          0          0          0          0          0          0          0
  cloud            :       0.00       0.00          0          0          0          0          0          0          0          0
  distribution     :       0.00       0.00          0          0          0          0          0          0          0          0
  fullstrong       :       0.00       0.00          0          0          0          0          0          0          0          0
  inference        :       0.00       0.00          0          0          0          0          0          0          0          0
  leastinf         :       0.00       0.00          0          0          0          0          0          0          0          0
  lookahead        :       0.00       0.00          0          0          0          0          0          0          0          0
  mostinf          :       0.00       0.00          0          0          0          0          0          0          0          0
  multaggr         :       0.00       0.00          0          0          0          0          0          0          0          0
  nodereopt        :       0.00       0.00          0          0          0          0          0          0          0          0
  pscost           :       0.00       0.00          0          0          0          0          0          0          0          0
  random           :       0.00       0.00          0          0          0          0          0          0          0          0
  relpscost        :      17.88       0.00        584          0          0          0          0          0          0       1168
  vanillafullstrong:       0.00       0.00          0          0          0          0          0          0          0          0
Primal Heuristics  :   ExecTime  SetupTime      Calls      Found       Best
  LP solutions     :       0.00          -          -          1          1
  relax solutions  :       0.00          -          -          0          0
  pseudo solutions :       0.00          -          -          0          0
  strong branching :       0.00          -          -          0          0
  actconsdiving    :       0.00       0.00          0          0          0
  adaptivediving   :       7.13       0.00          8          0          0
  alns             :       1.11       0.00          4          0          0
  bound            :       0.00       0.00          0          0          0
  clique           :       0.07       0.00          1          0          0
  coefdiving       :       0.00       0.00          0          0          0
  completesol      :       0.00       0.00          0          0          0
  conflictdiving   :      15.42       0.00         10          0          0
  crossover        :       0.00       0.00          0          0          0
  dins             :       0.00       0.00          0          0          0
  distributiondivin:       9.09       0.00          7          0          0
  dps              :       0.00       0.00          0          0          0
  dualval          :       0.00       0.00          0          0          0
  farkasdiving     :       0.00       0.00          0          0          0
  feaspump         :      38.51       0.00          3          0          0
  fixandinfer      :       0.00       0.00          0          0          0
  fracdiving       :       1.53       0.00          9          0          0
  gins             :       0.05       0.00          0          0          0
  guideddiving     :       2.37       0.00         10          0          0
  indicator        :       0.00       0.00          0          0          0
  intdiving        :       0.00       0.00          0          0          0
  intshifting      :       0.00       0.00          0          0          0
  linesearchdiving :       0.98       0.00          9          0          0
  localbranching   :       0.00       0.00          0          0          0
  locks            :       0.02       0.00          1          0          0
  lpface           :       0.00       0.00          0          0          0
  mpec             :       0.00       0.00          0          0          0
  multistart       :       0.00       0.00          0          0          0
  mutation         :       0.00       0.00          0          0          0
  nlpdiving        :       0.00       0.00          0          0          0
  objpscostdiving  :      30.02       0.00          3          0          0
  octane           :       0.00       0.00          0          0          0
  ofins            :       0.00       0.00          0          0          0
  oneopt           :       0.00       0.00          1          0          0
  padm             :       0.00       0.00          0          0          0
  proximity        :       0.00       0.00          0          0          0
  pscostdiving     :      11.30       0.00         10          0          0
  randrounding     :       0.09       0.00         91          0          0
  rens             :       0.14       0.00          1          0          0
  reoptsols        :       0.00       0.00          0          0          0
  repair           :       0.00       0.00          0          0          0
  rins             :       0.27       0.00          2          0          0
  rootsoldiving    :      32.12       0.00          3          0          0
  rounding         :       0.81       0.00        479          0          0
  shiftandpropagate:       0.03       0.00          1          0          0
  shifting         :       1.01       0.00        146          0          0
  simplerounding   :       0.00       0.00          0          0          0
  subnlp           :       0.00       0.00          0          0          0
  trivial          :       0.01       0.00          2          0          0
  trivialnegation  :       0.00       0.00          0          0          0
  trustregion      :       0.00       0.00          0          0          0
  trysol           :       0.00       0.00          0          0          0
  twoopt           :       0.00       0.00          0          0          0
  undercover       :       0.00       0.00          1          0          0
  vbounds          :       0.08       0.00          1          0          0
  veclendiving     :       3.24       0.00         10          0          0
  zeroobj          :       0.00       0.00          0          0          0
  zirounding       :       0.23       0.00        583          0          0
  other solutions  :          -          -          -          0          -
LP                 :       Time      Calls Iterations  Iter/call   Iter/sec  Time-0-It Calls-0-It    ItLimit
  primal LP        :      12.09         99          0       0.00       0.00      12.09         99
  dual LP          :     671.04       1861     575494     376.14     857.61       1.13        331
  lex dual LP      :       0.00          0          0       0.00          -
  barrier LP       :       0.00          0          0       0.00          -       0.00          0
  resolve instable :       0.00          0          0       0.00          -
  diving/probing LP:     149.18        643     118354     184.07     793.37
  strong branching :      17.20         22      22001    1000.05    1279.28          -          -         43
    (at root node) :          -         22      22001    1000.05          -
  conflict analysis:       0.13         11        110      10.00     816.57
B&B Tree           :
  number of runs   :          1
  nodes            :       1068 (584 internal, 484 leaves)
  feasible leaves  :          1
  infeas. leaves   :        312
  objective leaves :        171
  nodes (total)    :       1068 (584 internal, 484 leaves)
  nodes left       :          0
  max depth        :         26
  max depth (total):         26
  backtracks       :        349 (32.7%)
  early backtracks :          0 (0.0%)
  nodes exc. ref.  :          0 (0.0%)
  delayed cutoffs  :         62
  repropagations   :        758 (22180 domain reductions, 47 cutoffs)
  avg switch length:       5.70
  switching time   :      13.40
Root Node          :
  First LP value   : +1.00000000000000e+00
  First LP Iters   :        785 (2022.06 Iter/sec)
  First LP Time    :       0.39
  Final Dual Bound : +1.00000000044035e+00
  Final Root Iters :      77438
  Root LP Estimate : +2.47082275970827e+00
Solution           :
  Solutions found  :          1 (1 improvements)
  First Solution   : +4.00000000000000e+00   (in run 1, after 79 nodes, 400.48 seconds, depth 16, found by <relaxation>)
  Gap First Sol.   :     282.72 %
  Gap Last Sol.    :     282.72 %
  Primal Bound     : +4.00000000000000e+00   (in run 1, after 79 nodes, 400.48 seconds, depth 16, found by <relaxation>)
  Dual Bound       : +4.00000000000000e+00
  Gap              :       0.00 %
Integrals          :      Total       Avg%
  primal-dual      :   66450.19      75.89
  primal-ref       :          -          - (not evaluated)
  dual-ref         :          -          - (not evaluated)
written solution information to file <results/final_miplib_symretope_if_extended_generating_set_cpx_v802__settings_final_nopeek_norelabel_extend_norestarts__3__neos-950242.mps.gz.sol>
@04 1686664605
